
===== New CPLEX run =====
Instance: /home/yorig/tuner/mpils-tests/instances/miplib/easy/lotsize.mps
Config: /scratch/yorig/mpils-results-grid-ticks-10000/easy/16proc/seed-9/4_lotsize_seed-9_20260425_202405/expansion/config_param_CPXPARAM_Preprocessing_Reduce_1_iter_4.prm
========================

Selected objective sense:  MINIMIZE
Selected objective  name:  R1921
Selected RHS        name:  B
Selected bound      name:  BOUND
Version identifier: 22.1.2.0 | 2024-11-26 | 0edbb82fd
CPXPARAM_Preprocessing_Reduce                    1
CPXPARAM_Threads                                 8
CPXPARAM_Parallel                                1
CPXPARAM_MIP_Cuts_Cliques                        -1
CPXPARAM_Preprocessing_CoeffReduce               3
CPXPARAM_MIP_Strategy_VariableSelect             1
CPXPARAM_MIP_Cuts_FlowCovers                     1
CPXPARAM_MIP_Cuts_GUBCovers                      2
CPXPARAM_MIP_Limits_GomoryCand                   10
CPXPARAM_MIP_Cuts_MIRCut                         2
CPXPARAM_MIP_Cuts_Disjunctive                    2
CPXPARAM_MIP_Limits_AggForCut                    10
CPXPARAM_Emphasis_MIP                            4
CPXPARAM_DetTimeLimit                            10000
Tried aggregator 1 time.
Reduced MIP has 1920 rows, 2985 columns, and 6565 nonzeros.
Reduced MIP has 1195 binaries, 0 generals, 0 SOSs, and 0 indicators.
Presolve time = 0.00 sec. (2.77 ticks)
Probing time = 0.00 sec. (3.02 ticks)
Tried aggregator 1 time.
Reduced MIP has 1920 rows, 2985 columns, and 6565 nonzeros.
Reduced MIP has 1195 binaries, 0 generals, 0 SOSs, and 0 indicators.
Presolve time = 0.00 sec. (2.49 ticks)
Probing time = 0.00 sec. (2.49 ticks)
Clique table members: 145.
MIP emphasis: hidden feasible solutions.
MIP search method: dynamic search.
Parallel mode: deterministic, using up to 8 threads.
Root relaxation solution time = 0.01 sec. (10.34 ticks)

        Nodes                                         Cuts/
   Node  Left     Objective  IInf  Best Integer    Best Bound    ItCnt     Gap

      0     0   348385.3466   471                 348385.3466     1479         
*     0+    0                       1.08462e+07   348385.3466            96.79%
*     0+    0                       1.08262e+07   348385.3466            96.78%
      0     0   564993.3596   564   1.08262e+07     Cuts: 580     2578   94.78%
      0     0   728524.0880   595   1.08262e+07     Cuts: 580     3265   93.27%
      0     0   915792.4501   596   1.08262e+07     Cuts: 580     4031   91.54%
      0     0  1044345.7681   579   1.08262e+07     Cuts: 580     4759   90.35%
      0     0  1121610.7907   565   1.08262e+07     Cuts: 580     5363   89.64%
      0     0  1188488.7740   571   1.08262e+07     Cuts: 580     5923   89.02%
*     0+    0                      2174698.0000  1188488.7740            45.35%
      0     0  1223067.5402   576  2174698.0000     Cuts: 580     6411   43.76%
      0     0  1245691.7331   591  2174698.0000     Cuts: 580     6951   42.72%
      0     0  1270563.9634   594  2174698.0000     Cuts: 580     7541   41.58%
      0     0  1285259.5459   584  2174698.0000     Cuts: 580     8065   40.90%
*     0+    0                      2160603.0000  1285259.5459            40.51%
*     0+    0                      1736913.0000  1285259.5459            26.00%
      0     0  1297129.5973   595  1736913.0000     Cuts: 580     8522   25.32%
      0     0  1306218.3424   616  1736913.0000     Cuts: 580     8993   24.80%
      0     0  1316319.5710   601  1736913.0000     Cuts: 580     9532   24.21%
      0     0  1322134.5259   594  1736913.0000     Cuts: 580     9970   23.88%
      0     0  1331382.9644   585  1736913.0000     Cuts: 580    10452   23.35%
      0     0  1339771.6935   598  1736913.0000     Cuts: 580    10897   22.86%
      0     0  1347055.9040   583  1736913.0000     Cuts: 580    11429   22.45%
      0     0  1351513.4222   584  1736913.0000     Cuts: 580    11808   22.19%
      0     0  1356130.3749   601  1736913.0000     Cuts: 580    12287   21.92%
      0     0  1359370.6786   594  1736913.0000     Cuts: 526    12731   21.74%
      0     0  1362401.1209   591  1736913.0000     Cuts: 544    13111   21.56%
      0     0  1364512.1118   592  1736913.0000     Cuts: 474    13450   21.44%
      0     0  1366155.1707   599  1736913.0000     Cuts: 347    13745   21.35%
      0     0  1367213.6862   585  1736913.0000     Cuts: 485    14006   21.28%
      0     0  1368567.9809   589  1736913.0000     Cuts: 323    14283   21.21%
      0     0  1369302.0937   579  1736913.0000     Cuts: 360    14455   21.16%
      0     0  1369998.3253   589  1736913.0000     Cuts: 216    14641   21.12%
      0     0  1370516.2669   584  1736913.0000     Cuts: 193    14769   21.09%
      0     0  1371118.1415   578  1736913.0000     Cuts: 208    14958   21.06%
      0     0  1371529.6024   603  1736913.0000     Cuts: 239    15121   21.04%
      0     0  1371906.1101   600  1736913.0000     Cuts: 290    15285   21.01%
      0     0  1372185.6774   590  1736913.0000      Cuts: 89    15392   21.00%
*     0+    0                      1639748.0000  1372185.6774            16.32%

GUB cover cuts applied:  0
Cover cuts applied:  6
Implied bound cuts applied:  1
Flow cuts applied:  541
Mixed integer rounding cuts applied:  778
Flow path cuts applied:  31
Multi commodity flow cuts applied:  6
Gomory fractional cuts applied:  1
Disjunctive cuts applied:  0
Cone linearizations applied:  0

Root node processing (before b&c):
  Real time             =    6.55 sec. (10005.46 ticks)
Parallel b&c, 8 threads:
  Real time             =    0.00 sec. (0.00 ticks)
  Sync time (average)   =    0.00 sec.
  Wait time (average)   =    0.00 sec.
                          ------------
Total (root+branch&cut) =    6.55 sec. (10005.46 ticks)
Gap: 16.32%
Upper bound: 1.63975e+06
Lower bound: 1.37219e+06
End of CPLEX run. Time: 6.55435 seconds
